(set-logic ALL)
(declare-const k Int)
(declare-fun s () (_ BitVec k))
(declare-fun t () (_ BitVec k))
(assert (distinct (bvlshr s (bvshl (bvadd t t) (_ bv1 k))) (bvlshr s (bvmul t (bvshl t (_ bv1 k))))))
(check-sat)
